# Solution for model obj
# Objective value = 3.2136622689559943e+02
sp1_temp_t_inout 9.9894141314524218e-02
sp1_temp_y 1
sp2_temp_t_inout 2.2995698924730162e-01
sp2_temp_y 1
ch1_1_evap_u0 0
ch1_1_evap_u0_y 0
ch1_1_evap_v0 0
ch1_1_evap_v0_y 0
ch1_1_evap_u1 1.3385188199852858e+00
ch1_1_evap_u1_y 1
ch1_1_evap_v1 6.6148118001471423e-01
ch1_1_evap_v1_y 1
ch2_1_evap_u0 0
ch2_1_evap_u0_y 0
ch2_1_evap_v0 0
ch2_1_evap_v0_y 0
ch2_1_evap_u1 0
ch2_1_evap_u1_y 0
ch2_1_evap_v1 0
ch2_1_evap_v1_y 0
ch3_1_evap_u0 0
ch3_1_evap_u0_y 0
ch3_1_evap_v0 0
ch3_1_evap_v0_y 0
ch3_1_evap_u1 0
ch3_1_evap_u1_y 0
ch3_1_evap_v1 0
ch3_1_evap_v1_y 0
cb_ss_u0 9.9841211971786359e-01
cb_ss_u0_y 1
cb_ss_v0 0
cb_ss_v0_y 0
cb_ss_u1 0
cb_ss_u1_y 0
cb_ss_v1 0
cb_ss_v1_y 1
cp_nwk_u0 6.0068808145559249e-01
cp_nwk_u0_y 1
cp_nwk_v0 0
cp_nwk_v0_y 0
cp_nwk_u1 0
cp_nwk_u1_y 0
cp_nwk_v1 4.0089979882654386e-01
cp_nwk_v1_y 1
ch_evap_ret_t_in 1
ch_evap_ret_y 1
ch_e_f_c_mass_flow 1
ch_e_f_c_y 1
ch1_1_evap_y 1
ch2_1_evap_y 0
ch3_1_evap_y 0
cb_ss_y 1
cp_nwk_y 1
